! SP CCSD(T) def2-TZVP CPCM(Acetone)
%cpcm
surfacetype vdw_gaussian
end
%geom MaxIter 100 end
%output 
xyzfile=True 
end 
%scf 
maxiter 250 
end
%output
Print[P_Hirshfeld] = 1
end
% maxcore
4000
%pal nprocs 4
end
*xyz -1 1
  C   6.83334234978905      1.28701444278416      0.03730305269981
  C   6.14386808306505     -0.00788543315832     -0.10127539806411
  C   4.70533409285786     -0.08376257327231      0.21846178538009
  C   6.88833894146518     -1.18970292605121     -0.57492159905584
  Br  6.85050007574591     -0.55429555936322      2.80856320604875
  H   6.79145350508440      1.72862003606724     -0.97534685769446
  H   6.32090184687673      1.95960451985497      0.73382181491349
  H   7.88841865405742      1.15814305106992      0.30895416327180
  H   4.18337696708613      0.61305067747910     -0.45512001605608
  H   4.55108942570366      0.27653331371501      1.24506983480046
  H   4.29205336041436     -1.09067149507273      0.09039051308856
  H   7.27998689414387     -1.66213329481552      0.34393185027290
  H   7.74171424707179     -0.90959130066328     -1.20374357072606
  H   6.23580779328317     -1.90576274691100     -1.08602209482774
  Br  5.44598526299594      0.46855588677702     -3.01760864544280
*
