! SP CCSD(T) def2-TZVP CPCM(Acetone)
%cpcm
surfacetype vdw_gaussian
end
%geom MaxIter 100 end
%output 
xyzfile=True 
end 
%scf 
maxiter 250 
end
%output
Print[P_Hirshfeld] = 1
end
% maxcore
4000
%pal nprocs 4
end
*xyz -1 1
  C   -2.75363457998359      0.29891389448776      0.68756920871954
  C   -1.75432579734293      0.19337747110284     -0.45601846113805
  C   -0.37546746179491      0.61887096363067     -0.00622999821366
  Br  0.95369677298775      0.30792368156749     -1.41782210437070
  H   -3.73364089105380     -0.09825978258097      0.38067143964849
  H   -2.38395290098653     -0.26869413594546      1.55658189769508
  H   -2.89654113191209      1.34448427381389      1.00494577798537
  H   -1.70553778076171     -0.85062150148346     -0.80707925103905
  H   -2.07576318783343      0.79985291843412     -1.31900330162960
  H   -0.03910414355461      0.04147099049151      0.87146246613800
  H   -0.31515433857997      1.69370016071346      0.21433951668242
  Cl  -0.16115455918415     -1.16584893423184      3.00515280952215
*
