! SP CCSD(T) def2-TZVP CPCM(Acetone)
%cpcm
surfacetype vdw_gaussian
end
%geom MaxIter 100 end
%output 
xyzfile=True 
end 
%scf 
maxiter 250 
end
%output
Print[P_Hirshfeld] = 1
end
% maxcore
4000
%pal nprocs 4
end
*xyz -1 1
  C   1.38676343781483     -0.50070692648455     -0.85113703756399
  C   0.10282325643984     -0.23705841915218     -0.10077833998079
  C   -0.70069084855389     -1.48001335490332      0.20314542185045
  Br  -1.01833724084234      1.02272479165688     -1.15434352377750
  H   1.90940732673292      0.43286533760312     -1.10271707522504
  H   1.19811626613602     -1.06263863062883     -1.77864885569647
  H   2.04545600042489     -1.10047801199197     -0.20239551690917
  H   0.30589884646771      0.32532249216837      0.82077121461565
  H   -1.62090891524803     -1.24508528817934      0.75621565913002
  H   -0.08255890290999     -2.13900173320669      0.83410727354168
  H   -0.96849834964586     -2.01964746467622     -0.71815234927918
  Br  2.10407912318389     -1.45245279220526      3.13843312929433
*
