! Freq PBE0 RIJCOSX D3BJ def2-SVP def2/J CPCM(DMF)
%geom MaxIter 100 end
%output 
xyzfile=True 
end 
%scf 
maxiter 250 
end
%output
Print[P_Hirshfeld] = 1
end
% maxcore
4000
%pal nprocs 4
end
*xyz -1 1
  C   -0.05543222422965     -1.06890138008958      1.02389465376885
  C   0.62917946061395     -0.45398884179057     -0.19087510498457
  C   1.43524234469715      0.78051261614000      0.19474917369501
  C   -0.29978728776592     -0.23845529029786     -1.36840351901004
  Br  -1.80658640449709      0.97235637542428     -0.98232754748740
  H   0.72720397507228     -1.41840868363841      1.71520443910096
  H   -0.69536041203735     -0.32971351059636      1.53321465903038
  H   -0.68737483476443     -1.92629897901319      0.74189928870881
  H   1.35818821998424     -1.20304779923236     -0.55557445799467
  H   1.92763419837458      1.23667938008889     -0.68007916555388
  H   0.79622713804767      1.54586217726889      0.66435200175038
  H   2.21104094083607      0.46902984933777      0.91069566241496
  H   0.21292819749066      0.22633703217323     -2.22104947992072
  H   -0.77781794359335     -1.17141559852099     -1.69344615225637
  Cl  3.32274463177119     -1.88723734725373      1.82746554873829
*
