! Freq PBE0 RIJCOSX D3BJ def2-SVP def2/J CPCM(DMF)
%geom MaxIter 100 end
%output 
xyzfile=True 
end 
%scf 
maxiter 250 
end
%output
Print[P_Hirshfeld] = 1
end
% maxcore
4000
%pal nprocs 4
end
*xyz -1 1
  C   -0.76144636220915     -0.24444108274403      0.52868478860705
  Br  0.12778569327444      0.30244774511492     -1.11069496354561
  H   -1.48829498205331      0.53368692223868      0.78538498314899
  H   0.03599547827828     -0.35116745853800      1.28480491843462
  H   -1.26800260496134     -1.19643604958433      0.32818590012696
  Cl  2.14259277767109     -0.47111007648723      2.48616437322798
*
