! Freq PBE0 RIJCOSX D3BJ def2-SVP def2/J CPCM(Acetone)
%geom MaxIter 100 end
%output 
xyzfile=True 
end 
%scf 
maxiter 250 
end
%output
Print[P_Hirshfeld] = 1
end
% maxcore
4000
%pal nprocs 4
end
*xyz -1 1
  C   -0.22903136734321      1.47754552303087     -2.41477131458861
  C   -0.61212666487172      0.14062203556538     -1.80747691104674
  C   -2.11764831429387     -0.00167824687765     -1.69562740850566
  C   0.01280056549135     -1.02969460801638     -2.54641989355266
  Br  0.11456926452728      0.09931059977573      0.06521937667724
  H   -0.61793388794388      1.52178755071493     -3.44622703869902
  H   -0.66888220702214      2.31138556874945     -1.84938402674032
  H   0.86198404375437      1.60757739774388     -2.45115007661822
  H   -2.55739351561619      0.04614939943910     -2.70626499885095
  H   -2.55313842838996      0.80968985451041     -1.09611932706885
  H   -2.39998072148067     -0.96308321965642     -1.24194137944686
  H   -0.22946205312162     -1.98362573199595     -2.05569589352787
  H   1.10656990564495     -0.93252258556434     -2.60843950441769
  H   -0.38986499913805     -1.06193315996416     -3.57279226449166
  Br  1.06437837980339     -0.45066037745486      3.54858066087790
*
