! Opt PBE0 RIJCOSX D3BJ def2-SVP def2/J CPCM(Acetone)
%geom MaxIter 100 end
%output 
xyzfile=True 
end 
%scf 
maxiter 250 
end
%output
Print[P_Hirshfeld] = 1
end
% maxcore
4000
%pal nprocs 4
end
*xyz -1 1
C    -0.98634   0.79438  -2.40660
Br   -1.60436  -0.96719  -1.87830
H    -1.22816   1.49042  -1.59632
H    -1.50175   1.07172  -3.33226
H     0.09711   0.73683  -2.55875
I     1.12443   0.50760   1.46989
*
