! Opt PBE0 RIJCOSX D3BJ def2-SVP def2/J CPCM(Acetone)
%cpcm
surfacetype vdw_gaussian
end
%geom MaxIter 100 end
%output 
xyzfile=True 
end 
%scf 
maxiter 250 
end
%output
Print[P_Hirshfeld] = 1
end
% maxcore
4000
%pal nprocs 4
end
*xyz -1 1
C    -1.72057  -0.43040  -0.56569
C    -0.23482  -0.65126  -0.49509
Br    0.76266   0.95487  -1.04459
H    -2.21719  -1.35068  -0.21866
H    -2.03125   0.37447   0.11546
H    -2.06707  -0.19330  -1.58244
H     0.11566  -1.43947  -1.17238
H     0.06722  -0.87473   0.53971
Br   -0.88208  -1.68661   2.77957
*
