! Opt PBE0 RIJCOSX D3BJ def2-SVP def2/J CPCM(Acetone)
%cpcm
surfacetype vdw_gaussian
end
%geom MaxIter 100 end
%output 
xyzfile=True 
end 
%scf 
maxiter 250 
end
%output
Print[P_Hirshfeld] = 1
end
% maxcore
4000
%pal nprocs 4
end
*xyz -1 1
C    -0.20654   1.46311  -2.33493
C    -0.61798   0.11360  -1.77392
C    -2.12861  -0.01058  -1.70772
C     0.00867  -1.04002  -2.53833
Br    0.06346   0.01308   0.11153
H    -0.57221   1.54850  -3.37276
H    -0.64614   2.28442  -1.75086
H     0.88682   1.58062  -2.34296
H    -2.54670   0.09243  -2.72387
H    -2.56670   0.77747  -1.07938
H    -2.43622  -0.98729  -1.30496
H    -0.25482  -2.00684  -2.08474
H     1.10507  -0.95549  -2.57079
H    -0.36811  -1.03757  -3.57541
Br    1.06485  -0.24457   3.17059
*
