! Opt PBE0 RIJCOSX D3BJ def2-SVP def2/J CPCM(DMF)
%geom MaxIter 100 end
%output 
xyzfile=True 
end 
%scf 
maxiter 250 
end
%output
Print[P_Hirshfeld] = 1
end
% maxcore
4000
%pal nprocs 4
end
*xyz -1 1
C    -0.01979  -1.09910   0.98829
C     0.62608  -0.45436  -0.23365
C     1.44209   0.77508   0.15024
C    -0.34576  -0.20626  -1.37127
Br   -1.80729   1.03011  -0.91373
H     0.77242  -1.42623   1.68077
H    -0.67675  -0.38260   1.50830
H    -0.62784  -1.97382   0.70840
H     1.33372  -1.19403  -0.65745
H     1.90452   1.25152  -0.72926
H     0.81333   1.52714   0.65409
H     2.23955   0.46849   0.84375
H     0.14473   0.25813  -2.23694
H    -0.85387  -1.12652  -1.68677
Cl    3.35289  -1.91424   2.21495
*
